% Logging successfully configured
%%%mzn-stat: initTime=0.034361026
%%%mzn-stat: objective=1013
%%%mzn-stat: nodes=7934
%%%mzn-stat: restarts=0
%%%mzn-stat: peakDepth=1174
%%%mzn-stat: solveTime=4.825664806
%%%mzn-stat: variables=1827
%%%mzn-stat: propagators=1453
%%%mzn-stat: failures=3962
%%%mzn-stat: propagations=131640
%%%mzn-stat: nogoods=3962
%%%mzn-stat: numAtomicConstraintsPropagated=0
%%%mzn-stat: circuitNumber1PropagationsTotal=24618
%%%mzn-stat: circuitNumber1CircuitConflicts=1387
%%%mzn-stat: circuitNumber1AlldiffConflicts=22
%%%mzn-stat: circuitNumber1TotalFixedEdgesAtConflict=108008
%%%mzn-stat: circuitNumber1NumberOfConflicts=1409
%%%mzn-stat: circuitNumber1GacPrunings=108531
%%%mzn-stat: circuitNumber1PropagationsThatGacPruned=14795
%%%mzn-stat: circuitNumber1TotalPruningHallSetSize=666939
%%%mzn-stat: circuitNumber1NumberOfPruningExplanations=108531
%%%mzn-stat: circuitNumber1MaxPruningHallSetSize=49
%%%mzn-stat: circuitNumber1TotalSccSizeAtPruning=146439
%%%mzn-stat: circuitNumber1NumberOfSccPruningCalls=14795
%%%mzn-stat: circuitNumber1TotalVarsInvolvedInPruning=80070
%%%mzn-stat: circuitNumber1MaxValuesPrunedFromSingleVar=7
%%%mzn-stat: circuitNumber1HallCircuitChecks=57288
%%%mzn-stat: circuitNumber1HallCircuitPrunings=2876
%%%mzn-stat: circuitNumber1CircuitPreventPrunings=10565
%%%mzn-stat: AverageConflictSize=12.57193336698637
%%%mzn-stat: NumUnitNogoodsLearned=0
%%%mzn-stat: AverageLearnedNogoodLength=57.59061080262494
%%%mzn-stat: AverageBacktrackAmount=0
%%%mzn-stat: AverageLbd=21.113831398283693
%%%mzn-stat: 2AutonomousSearchNumBackupCalled=1099
%%%mzn-stat: 2AutonomousSearchNumPredicatesRemoved=0
%%%mzn-stat: 2AutonomousSearchNumCalls=1100
%%%mzn-stat: 2AutonomousSearchNumPredicatesAdded=1968
%%%mzn-stat: 2AutonomousSearchAverageSizeOfHeap=1.789090909090909
%%%mzn-stat: 2AutonomousSearchNumAssignedPredicatesEncountered=1968
%%%mzn-stat-end
maxleg = 1013;
succ = array1d(1..100,[8, 4, 32, 15, 14, 10, 20, 13, 39, 18, 12, 17, 22, 19, 6, 5, 16, 29, 21, 1, 36, 2, 7, 30, 11, 35, 23, 27, 50, 42, 25, 45, 31, 28, 44, 40, 33, 51, 26, 38, 3, 53, 24, 56, 49, 9, 34, 41, 65, 57, 98, 78, 77, 46, 80, 64, 74, 54, 67, 63, 59, 43, 58, 84, 70, 60, 83, 72, 48, 89, 99, 76, 61, 75, 79, 97, 95, 82, 81, 91, 85, 94, 86, 37, 90, 87, 88, 69, 92, 96, 93, 68, 71, 47, 52, 66, 100, 73, 62, 55]);
% time elapsed: 7.77 s
----------
%%%mzn-stat: initTime=0.034361026
%%%mzn-stat: objective=496
%%%mzn-stat: nodes=9097
%%%mzn-stat: restarts=0
%%%mzn-stat: peakDepth=1174
%%%mzn-stat: solveTime=4.856635992
%%%mzn-stat: variables=1827
%%%mzn-stat: propagators=1453
%%%mzn-stat: failures=3969
%%%mzn-stat: propagations=134352
%%%mzn-stat: nogoods=3969
%%%mzn-stat: numAtomicConstraintsPropagated=0
%%%mzn-stat: circuitNumber1PropagationsTotal=24831
%%%mzn-stat: circuitNumber1CircuitConflicts=1392
%%%mzn-stat: circuitNumber1AlldiffConflicts=22
%%%mzn-stat: circuitNumber1TotalFixedEdgesAtConflict=108305
%%%mzn-stat: circuitNumber1NumberOfConflicts=1414
%%%mzn-stat: circuitNumber1GacPrunings=109246
%%%mzn-stat: circuitNumber1PropagationsThatGacPruned=14902
%%%mzn-stat: circuitNumber1TotalPruningHallSetSize=668685
%%%mzn-stat: circuitNumber1NumberOfPruningExplanations=109246
%%%mzn-stat: circuitNumber1MaxPruningHallSetSize=49
%%%mzn-stat: circuitNumber1TotalSccSizeAtPruning=147090
%%%mzn-stat: circuitNumber1NumberOfSccPruningCalls=14902
%%%mzn-stat: circuitNumber1TotalVarsInvolvedInPruning=80741
%%%mzn-stat: circuitNumber1MaxValuesPrunedFromSingleVar=7
%%%mzn-stat: circuitNumber1HallCircuitChecks=57701
%%%mzn-stat: circuitNumber1HallCircuitPrunings=2887
%%%mzn-stat: circuitNumber1CircuitPreventPrunings=10613
%%%mzn-stat: AverageConflictSize=12.55681531872008
%%%mzn-stat: NumUnitNogoodsLearned=0
%%%mzn-stat: AverageLearnedNogoodLength=57.53489543965735
%%%mzn-stat: AverageBacktrackAmount=0
%%%mzn-stat: AverageLbd=21.09297052154195
%%%mzn-stat: 2AutonomousSearchNumBackupCalled=2168
%%%mzn-stat: 2AutonomousSearchNumPredicatesRemoved=0
%%%mzn-stat: 2AutonomousSearchNumCalls=2170
%%%mzn-stat: 2AutonomousSearchNumPredicatesAdded=2489
%%%mzn-stat: 2AutonomousSearchAverageSizeOfHeap=1.8866359447004608
%%%mzn-stat: 2AutonomousSearchNumAssignedPredicatesEncountered=4094
%%%mzn-stat-end
maxleg = 496;
succ = array1d(1..100,[8, 4, 32, 15, 14, 10, 20, 13, 39, 18, 12, 17, 22, 19, 6, 5, 16, 29, 21, 1, 36, 2, 7, 30, 11, 35, 23, 27, 50, 42, 25, 45, 31, 28, 44, 40, 33, 51, 26, 38, 3, 53, 24, 56, 49, 9, 64, 41, 65, 57, 98, 54, 62, 46, 34, 78, 74, 52, 67, 63, 59, 71, 58, 84, 70, 60, 83, 72, 48, 89, 93, 77, 61, 75, 79, 92, 95, 82, 81, 55, 85, 94, 86, 37, 90, 87, 88, 69, 76, 96, 97, 68, 91, 47, 99, 66, 100, 73, 43, 80]);
% time elapsed: 7.78 s
----------
%%%mzn-stat: initTime=0.034361026
%%%mzn-stat: objective=311
%%%mzn-stat: nodes=10217
%%%mzn-stat: restarts=0
%%%mzn-stat: peakDepth=1174
%%%mzn-stat: solveTime=4.884133183
%%%mzn-stat: variables=1827
%%%mzn-stat: propagators=1453
%%%mzn-stat: failures=3972
%%%mzn-stat: propagations=136852
%%%mzn-stat: nogoods=3972
%%%mzn-stat: numAtomicConstraintsPropagated=0
%%%mzn-stat: circuitNumber1PropagationsTotal=25006
%%%mzn-stat: circuitNumber1CircuitConflicts=1394
%%%mzn-stat: circuitNumber1AlldiffConflicts=22
%%%mzn-stat: circuitNumber1TotalFixedEdgesAtConflict=108406
%%%mzn-stat: circuitNumber1NumberOfConflicts=1416
%%%mzn-stat: circuitNumber1GacPrunings=109860
%%%mzn-stat: circuitNumber1PropagationsThatGacPruned=14989
%%%mzn-stat: circuitNumber1TotalPruningHallSetSize=670003
%%%mzn-stat: circuitNumber1NumberOfPruningExplanations=109860
%%%mzn-stat: circuitNumber1MaxPruningHallSetSize=49
%%%mzn-stat: circuitNumber1TotalSccSizeAtPruning=147517
%%%mzn-stat: circuitNumber1NumberOfSccPruningCalls=14989
%%%mzn-stat: circuitNumber1TotalVarsInvolvedInPruning=81313
%%%mzn-stat: circuitNumber1MaxValuesPrunedFromSingleVar=7
%%%mzn-stat: circuitNumber1HallCircuitChecks=58003
%%%mzn-stat: circuitNumber1HallCircuitPrunings=2899
%%%mzn-stat: circuitNumber1CircuitPreventPrunings=10646
%%%mzn-stat: AverageConflictSize=12.549345417925478
%%%mzn-stat: NumUnitNogoodsLearned=0
%%%mzn-stat: AverageLearnedNogoodLength=57.51611278952669
%%%mzn-stat: AverageBacktrackAmount=0
%%%mzn-stat: AverageLbd=21.085095669687814
%%%mzn-stat: 2AutonomousSearchNumBackupCalled=3205
%%%mzn-stat: 2AutonomousSearchNumPredicatesRemoved=0
%%%mzn-stat: 2AutonomousSearchNumCalls=3208
%%%mzn-stat: 2AutonomousSearchNumPredicatesAdded=2678
%%%mzn-stat: 2AutonomousSearchAverageSizeOfHeap=1.9404613466334164
%%%mzn-stat: 2AutonomousSearchNumAssignedPredicatesEncountered=6225
%%%mzn-stat-end
maxleg = 311;
succ = array1d(1..100,[8, 4, 32, 15, 14, 10, 20, 13, 39, 18, 12, 17, 22, 19, 6, 5, 16, 29, 21, 1, 36, 2, 7, 30, 11, 35, 23, 27, 50, 42, 25, 45, 31, 28, 44, 41, 33, 40, 26, 51, 3, 53, 24, 56, 38, 9, 64, 49, 65, 57, 98, 54, 62, 46, 34, 78, 74, 52, 67, 63, 59, 71, 58, 84, 70, 60, 83, 72, 48, 89, 93, 77, 61, 75, 79, 92, 95, 82, 81, 55, 85, 94, 86, 37, 90, 87, 88, 69, 76, 96, 97, 68, 91, 47, 99, 66, 100, 73, 43, 80]);
% time elapsed: 7.81 s
----------
%%%mzn-stat: initTime=0.034361026
%%%mzn-stat: objective=301
%%%mzn-stat: nodes=11341
%%%mzn-stat: restarts=0
%%%mzn-stat: peakDepth=1174
%%%mzn-stat: solveTime=4.907144581
%%%mzn-stat: variables=1827
%%%mzn-stat: propagators=1453
%%%mzn-stat: failures=3972
%%%mzn-stat: propagations=139332
%%%mzn-stat: nogoods=3972
%%%mzn-stat: numAtomicConstraintsPropagated=0
%%%mzn-stat: circuitNumber1PropagationsTotal=25163
%%%mzn-stat: circuitNumber1CircuitConflicts=1394
%%%mzn-stat: circuitNumber1AlldiffConflicts=22
%%%mzn-stat: circuitNumber1TotalFixedEdgesAtConflict=108406
%%%mzn-stat: circuitNumber1NumberOfConflicts=1416
%%%mzn-stat: circuitNumber1GacPrunings=110422
%%%mzn-stat: circuitNumber1PropagationsThatGacPruned=15067
%%%mzn-stat: circuitNumber1TotalPruningHallSetSize=671365
%%%mzn-stat: circuitNumber1NumberOfPruningExplanations=110422
%%%mzn-stat: circuitNumber1MaxPruningHallSetSize=49
%%%mzn-stat: circuitNumber1TotalSccSizeAtPruning=147775
%%%mzn-stat: circuitNumber1NumberOfSccPruningCalls=15067
%%%mzn-stat: circuitNumber1TotalVarsInvolvedInPruning=81848
%%%mzn-stat: circuitNumber1MaxValuesPrunedFromSingleVar=7
%%%mzn-stat: circuitNumber1HallCircuitChecks=58313
%%%mzn-stat: circuitNumber1HallCircuitPrunings=2911
%%%mzn-stat: circuitNumber1CircuitPreventPrunings=10676
%%%mzn-stat: AverageConflictSize=12.549345417925478
%%%mzn-stat: NumUnitNogoodsLearned=0
%%%mzn-stat: AverageLearnedNogoodLength=57.51611278952669
%%%mzn-stat: AverageBacktrackAmount=0
%%%mzn-stat: AverageLbd=21.085095669687814
%%%mzn-stat: 2AutonomousSearchNumBackupCalled=4253
%%%mzn-stat: 2AutonomousSearchNumPredicatesRemoved=0
%%%mzn-stat: 2AutonomousSearchNumCalls=4257
%%%mzn-stat: 2AutonomousSearchNumPredicatesAdded=2678
%%%mzn-stat: 2AutonomousSearchAverageSizeOfHeap=1.962884660559079
%%%mzn-stat: 2AutonomousSearchNumAssignedPredicatesEncountered=8356
%%%mzn-stat-end
maxleg = 301;
succ = array1d(1..100,[8, 4, 32, 15, 14, 10, 20, 13, 39, 18, 12, 17, 22, 19, 6, 5, 16, 29, 21, 1, 36, 2, 7, 30, 11, 35, 23, 27, 50, 42, 25, 45, 31, 28, 44, 41, 34, 40, 26, 51, 3, 53, 24, 56, 38, 9, 64, 49, 65, 57, 98, 54, 62, 46, 80, 78, 74, 52, 67, 63, 59, 71, 58, 84, 70, 60, 83, 72, 48, 89, 93, 77, 61, 75, 79, 92, 95, 82, 81, 37, 85, 94, 86, 33, 90, 87, 88, 69, 76, 96, 97, 68, 91, 47, 99, 66, 100, 73, 43, 55]);
% time elapsed: 7.84 s
----------
%%%mzn-stat: initTime=0.034361026
%%%mzn-stat: objective=291
%%%mzn-stat: nodes=12481
%%%mzn-stat: restarts=0
%%%mzn-stat: peakDepth=1174
%%%mzn-stat: solveTime=4.931433018
%%%mzn-stat: variables=1827
%%%mzn-stat: propagators=1453
%%%mzn-stat: failures=3973
%%%mzn-stat: propagations=141847
%%%mzn-stat: nogoods=3973
%%%mzn-stat: numAtomicConstraintsPropagated=0
%%%mzn-stat: circuitNumber1PropagationsTotal=25331
%%%mzn-stat: circuitNumber1CircuitConflicts=1395
%%%mzn-stat: circuitNumber1AlldiffConflicts=22
%%%mzn-stat: circuitNumber1TotalFixedEdgesAtConflict=108454
%%%mzn-stat: circuitNumber1NumberOfConflicts=1417
%%%mzn-stat: circuitNumber1GacPrunings=111018
%%%mzn-stat: circuitNumber1PropagationsThatGacPruned=15150
%%%mzn-stat: circuitNumber1TotalPruningHallSetSize=673255
%%%mzn-stat: circuitNumber1NumberOfPruningExplanations=111018
%%%mzn-stat: circuitNumber1MaxPruningHallSetSize=60
%%%mzn-stat: circuitNumber1TotalSccSizeAtPruning=148182
%%%mzn-stat: circuitNumber1NumberOfSccPruningCalls=15150
%%%mzn-stat: circuitNumber1TotalVarsInvolvedInPruning=82408
%%%mzn-stat: circuitNumber1MaxValuesPrunedFromSingleVar=7
%%%mzn-stat: circuitNumber1HallCircuitChecks=58705
%%%mzn-stat: circuitNumber1HallCircuitPrunings=2922
%%%mzn-stat: circuitNumber1CircuitPreventPrunings=10709
%%%mzn-stat: AverageConflictSize=12.546941857538384
%%%mzn-stat: NumUnitNogoodsLearned=0
%%%mzn-stat: AverageLearnedNogoodLength=57.50994210923735
%%%mzn-stat: AverageBacktrackAmount=0
%%%mzn-stat: AverageLbd=21.082557261515227
%%%mzn-stat: 2AutonomousSearchNumBackupCalled=5313
%%%mzn-stat: 2AutonomousSearchNumPredicatesRemoved=0
%%%mzn-stat: 2AutonomousSearchNumCalls=5318
%%%mzn-stat: 2AutonomousSearchNumPredicatesAdded=2834
%%%mzn-stat: 2AutonomousSearchAverageSizeOfHeap=1.9753666792027078
%%%mzn-stat: 2AutonomousSearchNumAssignedPredicatesEncountered=10505
%%%mzn-stat-end
maxleg = 291;
succ = array1d(1..100,[8, 4, 32, 15, 14, 10, 20, 13, 39, 18, 12, 17, 22, 19, 6, 5, 16, 29, 21, 1, 36, 2, 7, 30, 11, 35, 23, 27, 50, 42, 25, 45, 31, 28, 44, 41, 34, 40, 26, 51, 3, 53, 24, 78, 38, 9, 33, 49, 65, 57, 98, 54, 62, 46, 80, 64, 74, 52, 67, 63, 59, 71, 58, 84, 70, 60, 83, 72, 48, 89, 93, 77, 61, 75, 79, 92, 95, 82, 81, 37, 85, 94, 86, 47, 90, 87, 88, 69, 76, 96, 97, 68, 91, 56, 99, 66, 100, 73, 43, 55]);
% time elapsed: 7.87 s
----------
